%%
% Autogenerated by /opt/prj/battleships-ai/src/server/solver.py, instance 0 6x6 [6] #2 <h2za>
% Source: https://www.puzzle-battleships.com/?size=0
%%

size = 6;
hints_num = 1;
hints = [| 2, 3 |];
ships_num = 6;

constr_rows = [1, 3, 1, 0, 2, 3];
constr_cols = [2, 1, 1, 3, 0, 3];

given_ships = [|
<>, <>, <>, <>, 1, |
<>, <>, <>, <>, 1, |
<>, <>, <>, <>, 1, |
<>, <>, <>, <>, 2, |
<>, <>, <>, <>, 2, |
<>, <>, <>, <>, 3  |];

